NAME : tsp_157_sol.txt
COMMENT : OR-Tools Guided Local Search
TYPE : TOUR
DIMENSION : 50
COST : 5051
STATUS : ROUTING_SUCCESS
GAP : 0.00% (Reference Solution)
TOUR_SECTION
1
35
47
7
49
10
44
48
18
26
33
4
9
31
3
6
28
41
20
12
25
45
39
16
29
50
11
21
32
46
37
22
27
40
2
30
43
38
24
8
23
17
5
36
42
13
15
19
34
14
-1
